Data path: /scratch/opt/lxu/CFLG/benchmarks/random_A
Instance: r_15_0.1_14.txt
Result path: /scratch/opt/lxu/CFLG/results/random_A
Solver: Gurobi
Time limit: 7200
Formulation: LEVFP
Cover: Large
julia --project=. src/main.jl /scratch/opt/lxu/CFLG/benchmarks/random_A r_15_0.1_14.txt /scratch/opt/lxu/CFLG/results/random_A Gurobi 7200 LEVFP Large
The latest version of Julia in the `release` channel is 1.11.6+0.x64.linux.gnu. You currently have `1.11.4+0.x64.linux.gnu` installed. Run:

  juliaup update

in your terminal shell to install Julia 1.11.6+0.x64.linux.gnu and update the `release` channel to that version.
/scratch/opt/lxu/CFLG/benchmarks/random_A Gurobi 7200.0 /scratch/opt/lxu/CFLG/results/random_A r_15_0.1_14.txt LEVFP Large
/scratch/opt/lxu/CFLG/benchmarks/random_A/r_15_0.1_14.txt

 read graph
data loaded

problem_graph/original graph: node: 15/15 edge: 14/14 dlt: 1.3060203950506006 break_avg_len: 0.6530101975253003 break_max_len: 0.9684685398380044elapsed CPU time: 0.023834 seconds
Set parameter TokenServer to value "solice01.zib.de"
Set parameter Threads to value 1
Set parameter OutputFlag to value 1
Set parameter MIPGap to value 0.0001
Set parameter TimeLimit to value 7199.976166

 model loaded

Gurobi Optimizer version 12.0.1 build v12.0.1rc0 (linux64 - "Debian GNU/Linux 12 (bookworm)")

CPU model: Intel(R) Xeon(R) Gold 5222 CPU @ 3.80GHz, instruction set [SSE2|AVX|AVX2|AVX512]
Thread count: 8 physical cores, 16 logical processors, using up to 1 threads

Non-default parameters:
TimeLimit  7199.976166
Threads  1

Optimize a model with 435 rows, 197 columns and 1137 nonzeros
Model fingerprint: 0xf12e39f8
Variable types: 29 continuous, 168 integer (168 binary)
Coefficient statistics:
  Matrix range     [1e-06, 2e+00]
  Objective range  [1e+00, 1e+00]
  Bounds range     [3e-01, 1e+00]
  RHS range        [3e-01, 2e+00]
Found heuristic solution: objective 5.0000000
Presolve removed 145 rows and 32 columns
Presolve time: 0.01s
Presolved: 290 rows, 165 columns, 1458 nonzeros
Variable types: 28 continuous, 137 integer (137 binary)

Root relaxation: objective 3.000000e+00, 147 iterations, 0.00 seconds (0.00 work units)

    Nodes    |    Current Node    |     Objective Bounds      |     Work
 Expl Unexpl |  Obj  Depth IntInf | Incumbent    BestBd   Gap | It/Node Time

     0     0    3.00000    0   13    5.00000    3.00000  40.0%     -    0s
H    0     0                       4.0000000    3.00000  25.0%     -    0s

Cutting planes:
  Cover: 1
  MIR: 3
  Flow cover: 3

Explored 1 nodes (206 simplex iterations) in 0.02 seconds (0.02 work units)
Thread count was 1 (of 16 available processors)

Solution count 2: 4 5 

Optimal solution found (tolerance 1.00e-04)
Best objective 4.000000000000e+00, best bound 4.000000000000e+00, gap 0.0000%

User-callback calls 736, time in user-callback 0.00 sec
Stat(MathOptInterface.OPTIMAL, 4.0, 4.0, 0.0, 0.0, 0.023834, 0.023022890090942383, 1, Main.CFLG.LEVFP, "", #undef)
